c File: flat50_3_0.col
c
c SOURCE: Joseph Culberson (joe@cs.ualberta.ca)
c DESCRIPTION: Quasi-random coloring problem
c              generated with flatness = 0
c                             probability = 0.139
c                             known coloring = 3
c                             random seed = 1558
c              Creation Date:  Tue Jun  9 12:12:14 1998
c Maximum degree = 8 Minimum degree = 2
c p edge 50 115
c cnf created by edge2cnf
p cnf 150 545
-1 -2 0
-1 -3 0
-2 -3 0
1 2 3 0
-4 -5 0
-4 -6 0
-5 -6 0
4 5 6 0
-7 -8 0
-7 -9 0
-8 -9 0
7 8 9 0
-10 -11 0
-10 -12 0
-11 -12 0
10 11 12 0
-13 -14 0
-13 -15 0
-14 -15 0
13 14 15 0
-16 -17 0
-16 -18 0
-17 -18 0
16 17 18 0
-19 -20 0
-19 -21 0
-20 -21 0
19 20 21 0
-22 -23 0
-22 -24 0
-23 -24 0
22 23 24 0
-25 -26 0
-25 -27 0
-26 -27 0
25 26 27 0
-28 -29 0
-28 -30 0
-29 -30 0
28 29 30 0
-31 -32 0
-31 -33 0
-32 -33 0
31 32 33 0
-34 -35 0
-34 -36 0
-35 -36 0
34 35 36 0
-37 -38 0
-37 -39 0
-38 -39 0
37 38 39 0
-40 -41 0
-40 -42 0
-41 -42 0
40 41 42 0
-43 -44 0
-43 -45 0
-44 -45 0
43 44 45 0
-46 -47 0
-46 -48 0
-47 -48 0
46 47 48 0
-49 -50 0
-49 -51 0
-50 -51 0
49 50 51 0
-52 -53 0
-52 -54 0
-53 -54 0
52 53 54 0
-55 -56 0
-55 -57 0
-56 -57 0
55 56 57 0
-58 -59 0
-58 -60 0
-59 -60 0
58 59 60 0
-61 -62 0
-61 -63 0
-62 -63 0
61 62 63 0
-64 -65 0
-64 -66 0
-65 -66 0
64 65 66 0
-67 -68 0
-67 -69 0
-68 -69 0
67 68 69 0
-70 -71 0
-70 -72 0
-71 -72 0
70 71 72 0
-73 -74 0
-73 -75 0
-74 -75 0
73 74 75 0
-76 -77 0
-76 -78 0
-77 -78 0
76 77 78 0
-79 -80 0
-79 -81 0
-80 -81 0
79 80 81 0
-82 -83 0
-82 -84 0
-83 -84 0
82 83 84 0
-85 -86 0
-85 -87 0
-86 -87 0
85 86 87 0
-88 -89 0
-88 -90 0
-89 -90 0
88 89 90 0
-91 -92 0
-91 -93 0
-92 -93 0
91 92 93 0
-94 -95 0
-94 -96 0
-95 -96 0
94 95 96 0
-97 -98 0
-97 -99 0
-98 -99 0
97 98 99 0
-100 -101 0
-100 -102 0
-101 -102 0
100 101 102 0
-103 -104 0
-103 -105 0
-104 -105 0
103 104 105 0
-106 -107 0
-106 -108 0
-107 -108 0
106 107 108 0
-109 -110 0
-109 -111 0
-110 -111 0
109 110 111 0
-112 -113 0
-112 -114 0
-113 -114 0
112 113 114 0
-115 -116 0
-115 -117 0
-116 -117 0
115 116 117 0
-118 -119 0
-118 -120 0
-119 -120 0
118 119 120 0
-121 -122 0
-121 -123 0
-122 -123 0
121 122 123 0
-124 -125 0
-124 -126 0
-125 -126 0
124 125 126 0
-127 -128 0
-127 -129 0
-128 -129 0
127 128 129 0
-130 -131 0
-130 -132 0
-131 -132 0
130 131 132 0
-133 -134 0
-133 -135 0
-134 -135 0
133 134 135 0
-136 -137 0
-136 -138 0
-137 -138 0
136 137 138 0
-139 -140 0
-139 -141 0
-140 -141 0
139 140 141 0
-142 -143 0
-142 -144 0
-143 -144 0
142 143 144 0
-145 -146 0
-145 -147 0
-146 -147 0
145 146 147 0
-148 -149 0
-148 -150 0
-149 -150 0
148 149 150 0
-52 -1 0
-53 -2 0
-54 -3 0
-58 -1 0
-59 -2 0
-60 -3 0
-100 -1 0
-101 -2 0
-102 -3 0
-136 -1 0
-137 -2 0
-138 -3 0
-139 -1 0
-140 -2 0
-141 -3 0
-61 -4 0
-62 -5 0
-63 -6 0
-73 -4 0
-74 -5 0
-75 -6 0
-79 -4 0
-80 -5 0
-81 -6 0
-103 -4 0
-104 -5 0
-105 -6 0
-109 -4 0
-110 -5 0
-111 -6 0
-124 -4 0
-125 -5 0
-126 -6 0
-58 -7 0
-59 -8 0
-60 -9 0
-82 -7 0
-83 -8 0
-84 -9 0
-94 -7 0
-95 -8 0
-96 -9 0
-100 -7 0
-101 -8 0
-102 -9 0
-127 -7 0
-128 -8 0
-129 -9 0
-52 -10 0
-53 -11 0
-54 -12 0
-79 -10 0
-80 -11 0
-81 -12 0
-130 -10 0
-131 -11 0
-132 -12 0
-58 -13 0
-59 -14 0
-60 -15 0
-61 -13 0
-62 -14 0
-63 -15 0
-97 -13 0
-98 -14 0
-99 -15 0
-127 -13 0
-128 -14 0
-129 -15 0
-145 -13 0
-146 -14 0
-147 -15 0
-58 -16 0
-59 -17 0
-60 -18 0
-97 -16 0
-98 -17 0
-99 -18 0
-142 -16 0
-143 -17 0
-144 -18 0
-70 -19 0
-71 -20 0
-72 -21 0
-73 -19 0
-74 -20 0
-75 -21 0
-139 -19 0
-140 -20 0
-141 -21 0
-148 -19 0
-149 -20 0
-150 -21 0
-79 -22 0
-80 -23 0
-81 -24 0
-88 -22 0
-89 -23 0
-90 -24 0
-115 -22 0
-116 -23 0
-117 -24 0
-64 -25 0
-65 -26 0
-66 -27 0
-79 -25 0
-80 -26 0
-81 -27 0
-85 -25 0
-86 -26 0
-87 -27 0
-55 -28 0
-56 -29 0
-57 -30 0
-73 -28 0
-74 -29 0
-75 -30 0
-76 -28 0
-77 -29 0
-78 -30 0
-139 -28 0
-140 -29 0
-141 -30 0
-55 -31 0
-56 -32 0
-57 -33 0
-61 -31 0
-62 -32 0
-63 -33 0
-97 -31 0
-98 -32 0
-99 -33 0
-118 -31 0
-119 -32 0
-120 -33 0
-124 -31 0
-125 -32 0
-126 -33 0
-130 -31 0
-131 -32 0
-132 -33 0
-133 -31 0
-134 -32 0
-135 -33 0
-109 -34 0
-110 -35 0
-111 -36 0
-112 -34 0
-113 -35 0
-114 -36 0
-124 -34 0
-125 -35 0
-126 -36 0
-127 -34 0
-128 -35 0
-129 -36 0
-100 -37 0
-101 -38 0
-102 -39 0
-112 -37 0
-113 -38 0
-114 -39 0
-139 -37 0
-140 -38 0
-141 -39 0
-145 -37 0
-146 -38 0
-147 -39 0
-94 -40 0
-95 -41 0
-96 -42 0
-121 -40 0
-122 -41 0
-123 -42 0
-130 -40 0
-131 -41 0
-132 -42 0
-73 -43 0
-74 -44 0
-75 -45 0
-103 -43 0
-104 -44 0
-105 -45 0
-106 -43 0
-107 -44 0
-108 -45 0
-121 -43 0
-122 -44 0
-123 -45 0
-52 -46 0
-53 -47 0
-54 -48 0
-55 -46 0
-56 -47 0
-57 -48 0
-70 -46 0
-71 -47 0
-72 -48 0
-82 -46 0
-83 -47 0
-84 -48 0
-106 -46 0
-107 -47 0
-108 -48 0
-118 -46 0
-119 -47 0
-120 -48 0
-121 -46 0
-122 -47 0
-123 -48 0
-148 -46 0
-149 -47 0
-150 -48 0
-55 -49 0
-56 -50 0
-57 -51 0
-64 -49 0
-65 -50 0
-66 -51 0
-100 -49 0
-101 -50 0
-102 -51 0
-118 -49 0
-119 -50 0
-120 -51 0
-121 -49 0
-122 -50 0
-123 -51 0
-127 -49 0
-128 -50 0
-129 -51 0
-136 -49 0
-137 -50 0
-138 -51 0
-133 -52 0
-134 -53 0
-135 -54 0
-106 -55 0
-107 -56 0
-108 -57 0
-136 -55 0
-137 -56 0
-138 -57 0
-142 -55 0
-143 -56 0
-144 -57 0
-112 -58 0
-113 -59 0
-114 -60 0
-136 -58 0
-137 -59 0
-138 -60 0
-139 -58 0
-140 -59 0
-141 -60 0
-103 -61 0
-104 -62 0
-105 -63 0
-142 -61 0
-143 -62 0
-144 -63 0
-106 -64 0
-107 -65 0
-108 -66 0
-115 -64 0
-116 -65 0
-117 -66 0
-124 -64 0
-125 -65 0
-126 -66 0
-130 -64 0
-131 -65 0
-132 -66 0
-115 -67 0
-116 -68 0
-117 -69 0
-124 -67 0
-125 -68 0
-126 -69 0
-127 -67 0
-128 -68 0
-129 -69 0
-133 -67 0
-134 -68 0
-135 -69 0
-118 -70 0
-119 -71 0
-120 -72 0
-145 -70 0
-146 -71 0
-147 -72 0
-103 -73 0
-104 -74 0
-105 -75 0
-127 -73 0
-128 -74 0
-129 -75 0
-115 -76 0
-116 -77 0
-117 -78 0
-136 -76 0
-137 -77 0
-138 -78 0
-142 -76 0
-143 -77 0
-144 -78 0
-106 -85 0
-107 -86 0
-108 -87 0
-124 -85 0
-125 -86 0
-126 -87 0
-133 -85 0
-134 -86 0
-135 -87 0
-130 -88 0
-131 -89 0
-132 -90 0
-130 -91 0
-131 -92 0
-132 -93 0
-139 -91 0
-140 -92 0
-141 -93 0
-136 -94 0
-137 -95 0
-138 -96 0
-148 -94 0
-149 -95 0
-150 -96 0
-103 -97 0
-104 -98 0
-105 -99 0
-118 -97 0
-119 -98 0
-120 -99 0
-133 -97 0
-134 -98 0
-135 -99 0
-109 -100 0
-110 -101 0
-111 -102 0
-115 -100 0
-116 -101 0
-117 -102 0
